
Gurobi 10.0.1 (mac64[arm]) logging started Mon Sep 18 23:07:16 2023

Set parameter LogFile to value "scenario_returns/returns_beta/results/M_j_b_-25/mip_log.txt"
Gurobi Optimizer version 10.0.1 build v10.0.1rc0 (mac64[arm])

CPU model: Apple M1
Thread count: 8 physical cores, 8 logical processors, using up to 8 threads

Optimize a model with 3388 rows, 12586 columns and 49544 nonzeros
Model fingerprint: 0xbc085e82
Model has 17956 general constraints
Variable types: 2 continuous, 12584 integer (816 binary)
Coefficient statistics:
  Matrix range     [6e-02, 3e+05]
  Objective range  [9e-02, 2e+05]
  Bounds range     [1e+00, 2e+07]
  RHS range        [2e+03, 2e+04]
  GenCon rhs range [1e+00, 1e+00]
  GenCon coe range [1e+00, 1e+00]

MIP start from previous solve did not produce a new incumbent solution
Processed MIP start in 4.25 seconds (5.17 work units)

Presolve removed 1738 rows and 6666 columns
Presolve time: 0.52s
Presolved: 1650 rows, 5920 columns, 23693 nonzeros
Presolved model has 4 SOS constraint(s)
Variable types: 0 continuous, 5920 integer (34 binary)

Root relaxation: objective 5.928389e+07, 7116 iterations, 0.09 seconds (0.12 work units)

    Nodes    |    Current Node    |     Objective Bounds      |     Work
 Expl Unexpl |  Obj  Depth IntInf | Incumbent    BestBd   Gap | It/Node Time

     0     0 5.9284e+07    0  564          - 5.9284e+07      -     -    4s
H    0     0                    6.744010e+07 6.0491e+07  10.3%     -    4s
     0     0 6.0553e+07    0  744 6.7440e+07 6.0553e+07  10.2%     -    5s
     0     0 6.0553e+07    0  676 6.7440e+07 6.0553e+07  10.2%     -    5s
     0     0 6.0590e+07    0  761 6.7440e+07 6.0590e+07  10.2%     -    5s
H    0     0                    6.742123e+07 6.0590e+07  10.1%     -    5s
     0     0 6.0640e+07    0  802 6.7421e+07 6.0640e+07  10.1%     -    5s
     0     0 6.0640e+07    0  811 6.7421e+07 6.0640e+07  10.1%     -    5s
     0     0 6.0640e+07    0  813 6.7421e+07 6.0640e+07  10.1%     -    5s
     0     0 6.0646e+07    0  839 6.7421e+07 6.0646e+07  10.0%     -    5s
     0     0 6.0646e+07    0  844 6.7421e+07 6.0646e+07  10.0%     -    5s
     0     0 6.0680e+07    0 1046 6.7421e+07 6.0680e+07  10.0%     -    5s
     0     0 6.0713e+07    0 1018 6.7421e+07 6.0713e+07  9.95%     -    5s
H    0     0                    6.414115e+07 6.0713e+07  5.34%     -    5s
     0     2 6.0713e+07    0 1012 6.4141e+07 6.0713e+07  5.34%     -    5s
H   32    38                    6.371772e+07 6.0713e+07  4.72%   632    6s
H   35    38                    6.294474e+07 6.0713e+07  3.55%   628    6s
H   37    38                    6.207637e+07 6.0713e+07  2.20%   595    6s
H  314   101                    6.206108e+07 6.1128e+07  1.50%   295    7s
  1497  1025 6.1543e+07   16 1016 6.2061e+07 6.1128e+07  1.50%  88.8   10s
H 1506   979                    6.206073e+07 6.1128e+07  1.50%  88.3   12s
H 1838   894                    6.206066e+07 6.1225e+07  1.35%   105   13s
H 1844   845                    6.206057e+07 6.1225e+07  1.35%   106   13s
H 3045  1138                    6.206053e+07 6.2041e+07  0.03%  80.9   15s
H 3159   928                    6.206053e+07 6.2041e+07  0.03%  78.2   15s

Cutting planes:
  Gomory: 3
  Implied bound: 198
  MIR: 9
  Relax-and-lift: 13

Explored 3323 nodes (257680 simplex iterations) in 15.08 seconds (20.54 work units)
Thread count was 8 (of 8 available processors)

Solution count 10: 6.20605e+07 6.20605e+07 6.20606e+07 ... 6.41412e+07

Optimal solution found (tolerance 1.00e-04)
Best objective 6.206052684900e+07, best bound 6.205887866011e+07, gap 0.0027%
